(declare-const x000 Int)
(declare-const x001 Int)
(declare-const x002 Int)
(declare-const x003 Int)
(declare-const x004 Int)
(declare-const x005 Int)
(declare-const x006 Int)
(declare-const x007 Int)
(declare-const x008 Int)
(declare-const x009 Int)
(declare-const x010 Int)
(declare-const x011 Int)
(declare-const x012 Int)
(declare-const x013 Int)
(declare-const x014 Int)
(declare-const x015 Int)
(declare-const x016 Int)
(assert (>= 2 (+ x002 x001 x000)))
(assert (>= 2 (+ x003 x002 x001)))
(assert (<= 1 (+ x003 x002 x001 x000)))
(assert (>= 2 (+ x004 x003 x002)))
(assert (>= 2 (+ x004 x002 x000)))
(assert (<= 1 (+ x004 x003 x002 x001)))
(assert (>= 2 (+ x005 x004 x003)))
(assert (>= 2 (+ x005 x003 x001)))
(assert (<= 1 (+ x005 x004 x003 x002)))
(assert (>= 2 (+ x006 x005 x004)))
(assert (>= 2 (+ x006 x004 x002)))
(assert (>= 2 (+ x006 x003 x000)))
(assert (<= 1 (+ x006 x005 x004 x003)))
(assert (<= 1 (+ x006 x004 x002 x000)))
(assert (>= 2 (+ x007 x006 x005)))
(assert (>= 2 (+ x007 x005 x003)))
(assert (>= 2 (+ x007 x004 x001)))
(assert (<= 1 (+ x007 x006 x005 x004)))
(assert (<= 1 (+ x007 x005 x003 x001)))
(assert (>= 2 (+ x008 x007 x006)))
(assert (>= 2 (+ x008 x006 x004)))
(assert (>= 2 (+ x008 x005 x002)))
(assert (>= 2 (+ x008 x004 x000)))
(assert (<= 1 (+ x008 x007 x006 x005)))
(assert (<= 1 (+ x008 x006 x004 x002)))
(assert (>= 2 (+ x009 x008 x007)))
(assert (>= 2 (+ x009 x007 x005)))
(assert (>= 2 (+ x009 x006 x003)))
(assert (>= 2 (+ x009 x005 x001)))
(assert (<= 1 (+ x009 x008 x007 x006)))
(assert (<= 1 (+ x009 x007 x005 x003)))
(assert (<= 1 (+ x009 x006 x003 x000)))
(assert (>= 2 (+ x010 x009 x008)))
(assert (>= 2 (+ x010 x008 x006)))
(assert (>= 2 (+ x010 x007 x004)))
(assert (>= 2 (+ x010 x006 x002)))
(assert (>= 2 (+ x010 x005 x000)))
(assert (<= 1 (+ x010 x009 x008 x007)))
(assert (<= 1 (+ x010 x008 x006 x004)))
(assert (<= 1 (+ x010 x007 x004 x001)))
(assert (>= 2 (+ x011 x010 x009)))
(assert (>= 2 (+ x011 x009 x007)))
(assert (>= 2 (+ x011 x008 x005)))
(assert (>= 2 (+ x011 x007 x003)))
(assert (>= 2 (+ x011 x006 x001)))
(assert (<= 1 (+ x011 x010 x009 x008)))
(assert (<= 1 (+ x011 x009 x007 x005)))
(assert (<= 1 (+ x011 x008 x005 x002)))
(assert (>= 2 (+ x012 x011 x010)))
(assert (>= 2 (+ x012 x010 x008)))
(assert (>= 2 (+ x012 x009 x006)))
(assert (>= 2 (+ x012 x008 x004)))
(assert (>= 2 (+ x012 x007 x002)))
(assert (>= 2 (+ x012 x006 x000)))
(assert (<= 1 (+ x012 x011 x010 x009)))
(assert (<= 1 (+ x012 x010 x008 x006)))
(assert (<= 1 (+ x012 x009 x006 x003)))
(assert (<= 1 (+ x012 x008 x004 x000)))
(assert (>= 2 (+ x013 x012 x011)))
(assert (>= 2 (+ x013 x011 x009)))
(assert (>= 2 (+ x013 x010 x007)))
(assert (>= 2 (+ x013 x009 x005)))
(assert (>= 2 (+ x013 x008 x003)))
(assert (>= 2 (+ x013 x007 x001)))
(assert (<= 1 (+ x013 x012 x011 x010)))
(assert (<= 1 (+ x013 x011 x009 x007)))
(assert (<= 1 (+ x013 x010 x007 x004)))
(assert (<= 1 (+ x013 x009 x005 x001)))
(assert (>= 2 (+ x014 x013 x012)))
(assert (>= 2 (+ x014 x012 x010)))
(assert (>= 2 (+ x014 x011 x008)))
(assert (>= 2 (+ x014 x010 x006)))
(assert (>= 2 (+ x014 x009 x004)))
(assert (>= 2 (+ x014 x008 x002)))
(assert (>= 2 (+ x014 x007 x000)))
(assert (<= 1 (+ x014 x013 x012 x011)))
(assert (<= 1 (+ x014 x012 x010 x008)))
(assert (<= 1 (+ x014 x011 x008 x005)))
(assert (<= 1 (+ x014 x010 x006 x002)))
(assert (>= 2 (+ x015 x014 x013)))
(assert (>= 2 (+ x015 x013 x011)))
(assert (>= 2 (+ x015 x012 x009)))
(assert (>= 2 (+ x015 x011 x007)))
(assert (>= 2 (+ x015 x010 x005)))
(assert (>= 2 (+ x015 x009 x003)))
(assert (>= 2 (+ x015 x008 x001)))
(assert (<= 1 (+ x015 x014 x013 x012)))
(assert (<= 1 (+ x015 x013 x011 x009)))
(assert (<= 1 (+ x015 x012 x009 x006)))
(assert (<= 1 (+ x015 x011 x007 x003)))
(assert (<= 1 (+ x015 x010 x005 x000)))
(assert (>= 2 (+ x016 x015 x014)))
(assert (>= 2 (+ x016 x014 x012)))
(assert (>= 2 (+ x016 x013 x010)))
(assert (>= 2 (+ x016 x012 x008)))
(assert (>= 2 (+ x016 x011 x006)))
(assert (>= 2 (+ x016 x010 x004)))
(assert (>= 2 (+ x016 x009 x002)))
(assert (>= 2 (+ x016 x008 x000)))
(assert (<= 1 (+ x016 x015 x014 x013)))
(assert (<= 1 (+ x016 x014 x012 x010)))
(assert (<= 1 (+ x016 x013 x010 x007)))
(assert (<= 1 (+ x016 x012 x008 x004)))
(assert (<= 1 (+ x016 x011 x006 x001)))
